# Solution for model r10_t18_m6_2
# Finished Task: 18 / 18
# Makespan: 584.0, Total Distance: 1397.0, Total Time: 0.1518
# R O S F
0 0 15 0.0 0.0
1 1 18 0.0 0.0
2 2 25 0.0 0.0
3 3 26 0.0 0.0
4 4 12 0.0 0.0
5 5 14 0.0 0.0
6 6 10 0.0 0.0
7 7 20 0.0 0.0
8 8 24 0.0 0.0
9 9 13 0.0 0.0
10 6 16 301.0 325.0
11 0 27 386.0 420.0
12 4 23 255.0 293.0
13 9 -1 223.0 245.0
14 5 21 292.0 331.0
15 0 19 111.0 146.0
16 6 -1 557.0 584.0
17 1 22 292.0 321.0
18 1 17 179.0 207.0
19 0 11 254.0 284.0
20 7 -1 324.0 346.0
21 5 -1 509.0 533.0
22 1 -1 520.0 548.0
23 4 -1 451.0 489.0
24 8 -1 233.0 256.0
25 2 -1 551.0 580.0
26 3 -1 454.0 482.0
27 0 -1 524.0 557.0
